WARNING: for repeatability, setting FPU to use double precision
============================[ Problem Statistics ]=============================
|                                                                             |
|  Number of variables:           100                                         |
|  Number of clauses:             449                                         |
|  Parse time:                   0.00 s                                       |
|  Eliminated clauses:           0.00 Mb                                      |
|  Simplification time:          0.00 s                                       |
|                                                                             |
============================[ Search Statistics ]==============================
| Conflicts |          ORIGINAL         |          LEARNT          | Progress |
|           |    Vars  Clauses Literals |    Limit  Clauses Lit/Cl |          |
===============================================================================
|       100 |      97      446     1349 |      163       99      5 |  1.010 % |
===============================================================================
restarts              : 2
conflicts             : 162            (59146 /sec)
decisions             : 201            (0.00 % random) (73384 /sec)
propagations          : 3606           (1316539 /sec)
conflict literals     : 891            (20.38 % deleted)
Memory used           : 13.00 MB
CPU time              : 0.002739 s

SATISFIABLE
